# 68832
param k := 5;
param n := 60;
param s := 2;
set E :=  (0,4) (0,11) (0,30) (0,51) (1,2) (2,16) (2,54) (2,56) (2,57) (3,34) (3,55) (4,34) (5,26) (5,51) (6,8) (6,58) (7,12) (7,25) (7,54) (7,56) (8,22) (8,27) (8,34) (8,36) (9,12) (9,24) (10,18) (10,54) (11,36) (11,49) (12,26) (12,32) (12,43) (12,45) (13,47) (14,50) (15,22) (15,31) (15,33) (15,46) (15,50) (16,17) (16,21) (17,26) (17,37) (18,24) (19,29) (19,30) (19,42) (20,23) (20,38) (20,52) (21,25) (22,35) (23,35) (24,53) (26,39) (26,51) (27,41) (28,30) (28,50) (28,54) (29,37) (29,43) (30,34) (30,42) (31,36) (32,44) (33,39) (34,43) (34,46) (34,57) (38,41) (38,55) (39,55) (39,57) (40,50) (41,45) (41,52) (41,53) (44,50) (45,53) (47,51) (48,59) (49,58) (53,55) (55,57) (58,59);